&control    
calculation='scf'    
restart_mode='from_scratch',    
pseudo_dir='/deac/thonhauserGrp/chakrad/calculations/atomandmolecule-qe6.2.1-i2012-C6modif/all_pbe_UPF_v1.5'    
prefix='Cu_19'    
outdir='.'    
disk_io='none'    
nstep=500    
forc_conv_thr=3d-3    
/    
&system    
ibrav=0    
nat = 66  
ntyp= 3   
occupations = smearing  
smearing = gauss  
degauss = 0.02  
ecutwfc = 50.0  
ecutrho = 600.0  
input_dft = 'vdw-df'  
/    
&electrons    
mixing_beta=0.3    
conv_thr = 1.0d-8  
electron_maxstep=500    
/    
ATOMIC_SPECIES    
Cu 1.0 cu_pbe_v1.2.uspp.F.UPF  
C 1.0 c_pbe_v1.2.uspp.F.UPF  
H 1.0 h_pbe_v1.4.uspp.F.UPF  
    
CELL_PARAMETERS angstrom   
7.8348845569031900 0.0000000000000000 0.0000000000000000  
3.9174422784515901 6.7852090619965404 0.0000000000000000  
0.0000000000000000 0.0000000000000000 28.6619274211248189  
ATOMIC_POSITIONS angstrom   
Cu 1.30581409 0.75391212 2.00000000 0  0  0
Cu 3.91744228 0.75391212 2.00000000 0  0  0
Cu 6.52907046 0.75391212 2.00000000 0  0  0
Cu 2.61162819 3.01564847 2.00000000 0  0  0
Cu 5.22325637 3.01564847 2.00000000 0  0  0
Cu 7.83488456 3.01564847 2.00000000 0  0  0
Cu 3.91744228 5.27738483 2.00000000 0  0  0
Cu 6.52907046 5.27738483 2.00000000 0  0  0
Cu 9.14069865 5.27738483 2.00000000 0  0  0
Cu 0.00000000 1.50782424 4.13238548 0  0  0
Cu 2.61162819 1.50782424 4.13238548 0  0  0
Cu 5.22325637 1.50782424 4.13238548 0  0  0
Cu 1.30581409 3.76956059 4.13238548 0  0  0
Cu 3.91744228 3.76956059 4.13238548 0  0  0
Cu 6.52907046 3.76956059 4.13238548 0  0  0
Cu 2.61162819 6.03129694 4.13238548 0  0  0
Cu 5.22325637 6.03129694 4.13238548 0  0  0
Cu 7.83488456 6.03129694 4.13238548 0  0  0
Cu 0.00000000 0.00000000 6.26477097 0  0  0
Cu 2.61162819 0.00000000 6.26477097 0  0  0
Cu 5.22325637 0.00000000 6.26477097 0  0  0
Cu 1.30581409 2.26173635 6.26477097 0  0  0
Cu 3.91744228 2.26173635 6.26477097 0  0  0
Cu 6.52907046 2.26173635 6.26477097 0  0  0
Cu 2.61162819 4.52347271 6.26477097 0  0  0
Cu 5.22325637 4.52347271 6.26477097 0  0  0
Cu 7.83488456 4.52347271 6.26477097 0  0  0
Cu 1.30580822 0.75390873 8.37637730 
Cu 3.91744228 0.75390488 8.37635694 
Cu 6.52907634 0.75390873 8.37637730 
Cu 2.61162192 3.01565209 8.37635694 
Cu 5.22326264 3.01565209 8.37635694 
Cu 7.83488456 3.01564935 8.37638674 
Cu 3.91744228 5.27739161 8.37637730 
Cu 6.52907122 5.27738439 8.37638674 
Cu 9.14069789 5.27738439 8.37638674 
Cu 0.00000000 1.50781257 10.48898317 
Cu 2.61162542 1.50782264 10.48892400 
Cu 5.22325914 1.50782264 10.48892400 
Cu 1.30582131 3.76955642 10.48895515 
Cu 3.91744228 3.76956378 10.48892400 
Cu 6.52906325 3.76955642 10.48895515 
Cu 2.61163829 6.03130278 10.48898317 
Cu 5.22324626 6.03130278 10.48898317 
Cu 7.83488456 6.03130528 10.48895515 
Cu 0.00000000 0.00000000 12.60143231 
Cu 2.61162802 0.00000423 12.60133409 
Cu 5.22325653 0.00000423 12.60133409 
Cu 1.30581767 2.26173410 12.60133409 
Cu 3.91744228 2.26173635 12.60127811 
Cu 6.52906688 2.26173410 12.60133409 
Cu 2.61163193 4.52347073 12.60133409 
Cu 5.22325263 4.52347073 12.60133409 
Cu 7.83488456 4.52347271 12.60129156 
C 5.14548728 3.10252244 15.65098519 
C 3.95379145 2.37252177 15.65098468 
C 2.72573692 3.03954085 15.65098511 
C 2.68939728 4.43660513 15.65098519 
C 3.88109310 5.16660580 15.65098468 
C 5.10914763 4.49958672 15.65098511 
H 6.10334275 2.58211587 15.65159811 
H 3.98214815 1.28277705 15.65159845 
H 1.79624431 2.47000752 15.65159812 
H 1.73154181 4.95701170 15.65159811 
H 3.85273640 6.25635051 15.65159845 
H 6.03864025 5.06912005 15.65159812 
    
K_POINTS automatic   
4 4 1 0 0 0
